clingo version 5.5.2
Reading from stdin
Solving...
UNSATISFIABLE

Models       : 0
Calls        : 1
Time         : 20.321s (Solving: 0.00s 1st Model: 0.00s Unsat: 0.00s)
CPU Time     : 20.281s

Choices      : 1       
Conflicts    : 2        (Analyzed: 1)
Restarts     : 0       
Problems     : 1        (Average Length: 0.00 Splits: 0)
Lemmas       : 1        (Deleted: 0)
  Binary     : 0        (Ratio:   0.00%)
  Ternary    : 0        (Ratio:   0.00%)
  Conflict   : 1        (Average Length:    1.0 Ratio: 100.00%) 
  Loop       : 0        (Average Length:    0.0 Ratio:   0.00%) 
  Other      : 0        (Average Length:    0.0 Ratio:   0.00%) 
Backjumps    : 1        (Average:  1.00 Max:   1 Sum:      1)
  Executed   : 1        (Average:  1.00 Max:   1 Sum:      1 Ratio: 100.00%)
  Bounded    : 0        (Average:  0.00 Max:   0 Sum:      0 Ratio:   0.00%)

Rules        : 66108   
Atoms        : 861     
Bodies       : 64924   
Equivalences : 725      (Atom=Atom: 58 Body=Body: 218 Other: 449)
Tight        : No       (SCCs: 1 Non-Hcfs: 0 Nodes: 59535 Gammas: 0)
Variables    : 62183    (Eliminated:    0 Frozen: 59630)
Constraints  : 312893   (Binary:  80.0% Ternary:   0.2% Other:  19.8%)

